0 0 0 0
0 1 0 0
0 2 0 0
0 3 0 0
0 4 0 3
0 5 0 5
0 6 0 4
0 7 0 2
0 8 0 12
0 9 0 6
0 10 0 9
0 11 0 8
0 12 1 7
0 13 1 3
0 14 0 13
0 15 0 6
0 16 1 14
0 17 0 10
0 18 0 8
0 19 0 13
0 20 0 13
0 21 0 15
0 22 0 10
0 23 0 15
0 24 0 17
0 25 0 16
0 26 0 20
0 27 0 15
0 28 0 20
0 29 0 23
0 30 2 19
0 31 0 26
